00000000000000000000000000000000000000000000000000,00000000000001000000000101000000000000011010000001,00001100000010010100010000011000011100000100100000,01100000000000001001001000000001000011100001010100,00000000000000000000000000000000000000000000000000,00000000000000000000000000000000000000000000000000,00000000000000000000000000000000000000000000000000,10010001011000000000100000000010000000000000000010,00000010100100100010000010100100100000000000001000,00000000000000000000000000000000000000000000000000,[],[0, 0, 0, 0, 0, 0, 0, 0, 0, 0, 0, 0, 0, 4, 0, 0, 0, 0, 0, 0, 0, 0, 0, 2, 0, 2, 0, 0, 0, 0, 0, 0, 0, 0, 0, 0, 0, 0, 0, 2, 2, 0, 4, 0, 0, 0, 0, 0, 0, 4],[0, 0, 0, 0, 8, 8, 0, 0, 0, 0, 0, 0, 1, 0, 0, 8, 0, 1, 0, 0, 0, 8, 0, 0, 0, 0, 0, 8, 8, 0, 0, 0, 0, 1, 8, 1, 0, 0, 0, 0, 0, 1, 0, 0, 8, 0, 0, 0, 0, 0],[0, 6, 6, 0, 0, 0, 0, 0, 0, 0, 0, 0, 0, 0, 0, 0, 5, 0, 0, 6, 0, 0, 5, 0, 0, 0, 0, 0, 0, 0, 0, 6, 0, 0, 0, 0, 6, 5, 6, 0, 0, 0, 0, 6, 0, 5, 0, 5, 0, 0],[],[],[],[10, 0, 0, 7, 0, 0, 0, 10, 0, 10, 10, 0, 0, 0, 0, 0, 0, 0, 0, 0, 7, 0, 0, 0, 0, 0, 0, 0, 0, 0, 7, 0, 0, 0, 0, 0, 0, 0, 0, 0, 0, 0, 0, 0, 0, 0, 0, 0, 10, 0],[0, 0, 0, 0, 0, 0, 9, 0, 3, 0, 0, 3, 0, 0, 3, 0, 0, 0, 9, 0, 0, 0, 0, 0, 9, 0, 3, 0, 0, 3, 0, 0, 9, 0, 0, 0, 0, 0, 0, 0, 0, 0, 0, 0, 0, 0, 9, 0, 0, 0],[][35, 41, 12, 33, 17],[40, 39, 25, 23],[29, 11, 26, 14, 8],[13, 49, 42],[45, 16, 22, 47, 37],[2, 1, 43, 31, 19, 38, 36],[20, 3, 30],[27, 34, 4, 5, 28, 44, 15, 21],[46, 24, 32, 6, 18],[7, 0, 9, 48, 10]
00000000000000000000000000000000000000000000000000,00000000000001000000000101000000000000011010000001,00001100000010010100010000011000011100000100100000,01100000000000001001001000000001000011100001010100,00000000000000000000000000000000000000000000000000,00000000000000000000000000000000000000000000000000,00000000000000000000000000000000000000000000000000,10010001011000000000100000000010000000000000000010,00000010100100100010000010100100100000000000001000,00000000000000000000000000000000000000000000000000,[],[0, 0, 0, 0, 0, 0, 0, 0, 0, 0, 0, 0, 0, 2, 0, 0, 0, 0, 0, 0, 0, 0, 0, 2, 0, 2, 0, 0, 0, 0, 0, 0, 0, 0, 0, 0, 0, 0, 0, 3, 3, 0, 2, 0, 0, 0, 0, 0, 0, 3],[0, 0, 0, 0, 5, 10, 0, 0, 0, 0, 0, 0, 5, 0, 0, 5, 0, 10, 0, 0, 0, 5, 0, 0, 0, 0, 0, 10, 10, 0, 0, 0, 0, 5, 10, 10, 0, 0, 0, 0, 0, 5, 0, 0, 5, 0, 0, 0, 0, 0],[0, 8, 1, 0, 0, 0, 0, 0, 0, 0, 0, 0, 0, 0, 0, 0, 8, 0, 0, 8, 0, 0, 1, 0, 0, 0, 0, 0, 0, 0, 0, 1, 0, 0, 0, 0, 8, 1, 8, 0, 0, 0, 0, 8, 0, 1, 0, 8, 0, 0],[],[],[],[4, 0, 0, 4, 0, 0, 0, 7, 0, 7, 4, 0, 0, 0, 0, 0, 0, 0, 0, 0, 4, 0, 0, 0, 0, 0, 0, 0, 0, 0, 7, 0, 0, 0, 0, 0, 0, 0, 0, 0, 0, 0, 0, 0, 0, 0, 0, 0, 7, 0],[0, 0, 0, 0, 0, 0, 9, 0, 6, 0, 0, 6, 0, 0, 6, 0, 0, 0, 6, 0, 0, 0, 0, 0, 6, 0, 6, 0, 0, 9, 0, 0, 9, 0, 0, 0, 0, 0, 0, 0, 0, 0, 0, 0, 0, 0, 6, 0, 0, 0],[][37, 22, 2, 31, 45],[42, 23, 25, 13],[49, 39, 40],[0, 20, 3, 10],[44, 41, 4, 33, 12, 21, 15],[14, 24, 46, 8, 26, 18, 11],[48, 30, 9, 7],[16, 1, 36, 38, 19, 47, 43],[32, 29, 6],[27, 28, 35, 34, 5, 17]
00000010100100101000000010100000100000000000000000,00000000000001000010000101000000000000011010000001,00001100000010010100010000011000011100000100100000,01100000000000000001001000000101000011100001011100,00000000000000000000000000000000000000000000000000,00000000000000000000000000000000000000000000000000,00000000000000000000000000000000000000000000000000,10010001011000000000100000000010000000000000000010,00000000000000000000000000000000000000000000000000,00000000000000000000000000000000000000000000000000,[0, 0, 0, 0, 0, 0, 9, 0, 9, 0, 0, 7, 0, 0, 9, 0, 9, 0, 0, 0, 0, 0, 0, 0, 7, 0, 9, 0, 0, 0, 0, 0, 7, 0, 0, 0, 0, 0, 0, 0, 0, 0, 0, 0, 0, 0, 0, 0, 0, 0],[0, 0, 0, 0, 0, 0, 0, 0, 0, 0, 0, 0, 0, 4, 0, 0, 0, 0, 4, 0, 0, 0, 0, 3, 0, 3, 0, 0, 0, 0, 0, 0, 0, 0, 0, 0, 0, 0, 0, 3, 3, 0, 4, 0, 0, 0, 0, 0, 0, 3],[0, 0, 0, 0, 8, 6, 0, 0, 0, 0, 0, 0, 6, 0, 0, 8, 0, 6, 0, 0, 0, 6, 0, 0, 0, 0, 0, 6, 8, 0, 0, 0, 0, 6, 8, 6, 0, 0, 0, 0, 0, 8, 0, 0, 6, 0, 0, 0, 0, 0],[0, 5, 1, 0, 0, 0, 0, 0, 0, 0, 0, 0, 0, 0, 0, 0, 0, 0, 0, 5, 0, 0, 1, 0, 0, 0, 0, 0, 0, 5, 0, 1, 0, 0, 0, 0, 5, 1, 1, 0, 0, 0, 0, 5, 0, 5, 5, 1, 0, 0],[],[],[],[2, 0, 0, 2, 0, 0, 0, 10, 0, 10, 10, 0, 0, 0, 0, 0, 0, 0, 0, 0, 2, 0, 0, 0, 0, 0, 0, 0, 0, 0, 2, 0, 0, 0, 0, 0, 0, 0, 0, 0, 0, 0, 0, 0, 0, 0, 0, 0, 10, 0],[],[][22, 47, 31, 37, 2, 38],[20, 0, 3, 30],[49, 23, 40, 25, 39],[42, 18, 13],[43, 19, 45, 29, 1, 46, 36],[33, 12, 5, 21, 35, 44, 17, 27],[24, 11, 32],[34, 28, 41, 15, 4],[16, 6, 26, 14, 8],[10, 48, 7, 9]
00000000000000000000000000000000000000000000000000,00000000000001000000000101000000000000011010000001,00001100000010010100010000011000011100000100100000,01100000000000000001001000000101000011100001011100,00000010100100101010000010100000100000000000000000,00000000000000000000000000000000000000000000000000,00000000000000000000000000000000000000000000000000,10010001011000000000100000000010000000000000000010,00000000000000000000000000000000000000000000000000,00000000000000000000000000000000000000000000000000,[],[0, 0, 0, 0, 0, 0, 0, 0, 0, 0, 0, 0, 0, 2, 0, 0, 0, 0, 0, 0, 0, 0, 0, 2, 0, 10, 0, 0, 0, 0, 0, 0, 0, 0, 0, 0, 0, 0, 0, 10, 10, 0, 10, 0, 0, 0, 0, 0, 0, 2],[0, 0, 0, 0, 8, 3, 0, 0, 0, 0, 0, 0, 8, 0, 0, 8, 0, 8, 0, 0, 0, 3, 0, 0, 0, 0, 0, 8, 3, 0, 0, 0, 0, 3, 3, 8, 0, 0, 0, 0, 0, 8, 0, 0, 8, 0, 0, 0, 0, 0],[0, 6, 1, 0, 0, 0, 0, 0, 0, 0, 0, 0, 0, 0, 0, 0, 0, 0, 0, 6, 0, 0, 1, 0, 0, 0, 0, 0, 0, 6, 0, 6, 0, 0, 0, 0, 6, 1, 6, 0, 0, 0, 0, 6, 0, 6, 1, 1, 0, 0],[0, 0, 0, 0, 0, 0, 7, 0, 7, 0, 0, 5, 0, 0, 5, 0, 7, 0, 5, 0, 0, 0, 0, 0, 7, 0, 5, 0, 0, 0, 0, 0, 7, 0, 0, 0, 0, 0, 0, 0, 0, 0, 0, 0, 0, 0, 0, 0, 0, 0],[],[],[9, 0, 0, 9, 0, 0, 0, 4, 0, 9, 4, 0, 0, 0, 0, 0, 0, 0, 0, 0, 9, 0, 0, 0, 0, 0, 0, 0, 0, 0, 4, 0, 0, 0, 0, 0, 0, 0, 0, 0, 0, 0, 0, 0, 0, 0, 0, 0, 9, 0],[],[][37, 22, 47, 46, 2],[13, 49, 23],[21, 5, 34, 33, 28],[10, 7, 30],[18, 26, 11, 14],[1, 29, 45, 36, 38, 19, 31, 43],[32, 24, 16, 6, 8],[44, 27, 41, 4, 15, 12, 17, 35],[3, 0, 20, 9, 48],[40, 39, 42, 25]
00000000000000000000000000000000000000000000000000,00000000000001000000000101000000000000011010000001,00001100000010010100010000011000011100000100100000,01100000000000000001001000000101000011100001011100,00000010100100101010000010100000100000000000000000,00000000000000000000000000000000000000000000000000,00000000000000000000000000000000000000000000000000,10010001011000000000100000000010000000000000000010,00000000000000000000000000000000000000000000000000,00000000000000000000000000000000000000000000000000,[],[0, 0, 0, 0, 0, 0, 0, 0, 0, 0, 0, 0, 0, 1, 0, 0, 0, 0, 0, 0, 0, 0, 0, 10, 0, 1, 0, 0, 0, 0, 0, 0, 0, 0, 0, 0, 0, 0, 0, 10, 1, 0, 10, 0, 0, 0, 0, 0, 0, 10],[0, 0, 0, 0, 5, 2, 0, 0, 0, 0, 0, 0, 2, 0, 0, 5, 0, 2, 0, 0, 0, 5, 0, 0, 0, 0, 0, 5, 5, 0, 0, 0, 0, 2, 5, 5, 0, 0, 0, 0, 0, 2, 0, 0, 2, 0, 0, 0, 0, 0],[0, 6, 6, 0, 0, 0, 0, 0, 0, 0, 0, 0, 0, 0, 0, 0, 0, 0, 0, 6, 0, 0, 4, 0, 0, 0, 0, 0, 0, 6, 0, 4, 0, 0, 0, 0, 6, 6, 6, 0, 0, 0, 0, 4, 0, 6, 4, 4, 0, 0],[0, 0, 0, 0, 0, 0, 9, 0, 9, 0, 0, 9, 0, 0, 9, 0, 7, 0, 9, 0, 0, 0, 0, 0, 7, 0, 9, 0, 0, 0, 0, 0, 7, 0, 0, 0, 0, 0, 0, 0, 0, 0, 0, 0, 0, 0, 0, 0, 0, 0],[],[],[3, 0, 0, 8, 0, 0, 0, 8, 0, 3, 3, 0, 0, 0, 0, 0, 0, 0, 0, 0, 3, 0, 0, 0, 0, 0, 0, 0, 0, 0, 8, 0, 0, 0, 0, 0, 0, 0, 0, 0, 0, 0, 0, 0, 0, 0, 0, 0, 8, 0],[],[][13, 25, 40],[44, 33, 12, 17, 41, 5],[9, 0, 20, 10],[46, 43, 22, 31, 47],[27, 28, 35, 21, 34, 4, 15],[37, 2, 1, 36, 45, 19, 38, 29],[24, 32, 16],[3, 48, 7, 30],[11, 18, 14, 26, 8, 6],[23, 39, 49, 42]
00000010100100101000000010100000100000000000000000,00000000000001000010000101000000000000011010000001,00001100000010010100010000011000011100000100100000,01100000000000000001001000000101000011100001011100,00000000000000000000000000000000000000000000000000,00000000000000000000000000000000000000000000000000,00000000000000000000000000000000000000000000000000,10010001011000000000100000000010000000000000000010,00000000000000000000000000000000000000000000000000,00000000000000000000000000000000000000000000000000,[0, 0, 0, 0, 0, 0, 10, 0, 10, 0, 0, 10, 0, 0, 7, 0, 10, 0, 0, 0, 0, 0, 0, 0, 7, 0, 7, 0, 0, 0, 0, 0, 10, 0, 0, 0, 0, 0, 0, 0, 0, 0, 0, 0, 0, 0, 0, 0, 0, 0],[0, 0, 0, 0, 0, 0, 0, 0, 0, 0, 0, 0, 0, 3, 0, 0, 0, 0, 1, 0, 0, 0, 0, 3, 0, 1, 0, 0, 0, 0, 0, 0, 0, 0, 0, 0, 0, 0, 0, 1, 1, 0, 1, 0, 0, 0, 0, 0, 0, 1],[0, 0, 0, 0, 6, 5, 0, 0, 0, 0, 0, 0, 6, 0, 0, 5, 0, 5, 0, 0, 0, 6, 0, 0, 0, 0, 0, 6, 6, 0, 0, 0, 0, 6, 5, 5, 0, 0, 0, 0, 0, 6, 0, 0, 6, 0, 0, 0, 0, 0],[0, 8, 8, 0, 0, 0, 0, 0, 0, 0, 0, 0, 0, 0, 0, 0, 0, 0, 0, 2, 0, 0, 2, 0, 0, 0, 0, 0, 0, 2, 0, 8, 0, 0, 0, 0, 8, 8, 2, 0, 0, 0, 0, 8, 0, 8, 2, 2, 0, 0],[],[],[],[9, 0, 0, 4, 0, 0, 0, 4, 0, 9, 4, 0, 0, 0, 0, 0, 0, 0, 0, 0, 9, 0, 0, 0, 0, 0, 0, 0, 0, 0, 4, 0, 0, 0, 0, 0, 0, 0, 0, 0, 0, 0, 0, 0, 0, 0, 0, 0, 9, 0],[],[][40, 49, 25, 42, 18, 39],[29, 46, 19, 38, 47, 22],[13, 23],[30, 3, 10, 7],[5, 15, 34, 35, 17],[21, 44, 27, 28, 41, 4, 12, 33],[14, 26, 24],[36, 1, 45, 31, 2, 43, 37],[48, 9, 0, 20],[16, 11, 6, 32, 8]
00000010100100101000000010100000100000000000000000,00000000000001000010000101000000000000011010000001,00001100000010010100010000011000011100000100100000,01100000000000000001001000000101000011100001011100,00000000000000000000000000000000000000000000000000,00000000000000000000000000000000000000000000000000,00000000000000000000000000000000000000000000000000,10010001011000000000100000000010000000000000000010,00000000000000000000000000000000000000000000000000,00000000000000000000000000000000000000000000000000,[0, 0, 0, 0, 0, 0, 9, 0, 9, 0, 0, 10, 0, 0, 9, 0, 10, 0, 0, 0, 0, 0, 0, 0, 9, 0, 10, 0, 0, 0, 0, 0, 9, 0, 0, 0, 0, 0, 0, 0, 0, 0, 0, 0, 0, 0, 0, 0, 0, 0],[0, 0, 0, 0, 0, 0, 0, 0, 0, 0, 0, 0, 0, 2, 0, 0, 0, 0, 2, 0, 0, 0, 0, 3, 0, 3, 0, 0, 0, 0, 0, 0, 0, 0, 0, 0, 0, 0, 0, 3, 2, 0, 2, 0, 0, 0, 0, 0, 0, 2],[0, 0, 0, 0, 6, 6, 0, 0, 0, 0, 0, 0, 5, 0, 0, 6, 0, 5, 0, 0, 0, 6, 0, 0, 0, 0, 0, 5, 5, 0, 0, 0, 0, 5, 6, 6, 0, 0, 0, 0, 0, 6, 0, 0, 5, 0, 0, 0, 0, 0],[0, 1, 7, 0, 0, 0, 0, 0, 0, 0, 0, 0, 0, 0, 0, 0, 0, 0, 0, 1, 0, 0, 1, 0, 0, 0, 0, 0, 0, 7, 0, 1, 0, 0, 0, 0, 7, 1, 1, 0, 0, 0, 0, 1, 0, 7, 7, 7, 0, 0],[],[],[],[8, 0, 0, 4, 0, 0, 0, 8, 0, 4, 8, 0, 0, 0, 0, 0, 0, 0, 0, 0, 4, 0, 0, 0, 0, 0, 0, 0, 0, 0, 4, 0, 0, 0, 0, 0, 0, 0, 0, 0, 0, 0, 0, 0, 0, 0, 0, 0, 8, 0],[],[][1, 31, 43, 37, 22, 38, 19],[49, 18, 42, 13, 40],[23, 25, 39],[30, 20, 9, 3],[44, 27, 28, 12, 33, 17],[35, 15, 5, 41, 4, 34, 21],[46, 29, 36, 45, 2, 47],[0, 10, 48, 7],[6, 14, 8, 24, 32],[11, 26, 16]
00000000100100101000000010000000100000000000000000,00000000000001000000000101000000000000011010000001,00001100000010010100010000011000011100000100100000,01100000000000000001001000000001000011100001010100,00000000000000000000000000000000000000000000000000,00000000000000000000000000000000000000000000000000,00000000000000000000000000000000000000000000000000,10010001011000000000100000000010000000000000000010,00000010000000000010000000100100000000000000001000,00000000000000000000000000000000000000000000000000,[0, 0, 0, 0, 0, 0, 0, 0, 5, 0, 0, 5, 0, 0, 5, 0, 5, 0, 0, 0, 0, 0, 0, 0, 5, 0, 0, 0, 0, 0, 0, 0, 5, 0, 0, 0, 0, 0, 0, 0, 0, 0, 0, 0, 0, 0, 0, 0, 0, 0],[0, 0, 0, 0, 0, 0, 0, 0, 0, 0, 0, 0, 0, 1, 0, 0, 0, 0, 0, 0, 0, 0, 0, 1, 0, 1, 0, 0, 0, 0, 0, 0, 0, 0, 0, 0, 0, 0, 0, 8, 8, 0, 8, 0, 0, 0, 0, 0, 0, 1],[0, 0, 0, 0, 10, 2, 0, 0, 0, 0, 0, 0, 10, 0, 0, 2, 0, 10, 0, 0, 0, 2, 0, 0, 0, 0, 0, 2, 2, 0, 0, 0, 0, 10, 2, 10, 0, 0, 0, 0, 0, 10, 0, 0, 10, 0, 0, 0, 0, 0],[0, 6, 6, 0, 0, 0, 0, 0, 0, 0, 0, 0, 0, 0, 0, 0, 0, 0, 0, 6, 0, 0, 6, 0, 0, 0, 0, 0, 0, 0, 0, 6, 0, 0, 0, 0, 4, 6, 6, 0, 0, 0, 0, 6, 0, 4, 0, 6, 0, 0],[],[],[],[9, 0, 0, 9, 0, 0, 0, 9, 0, 9, 9, 0, 0, 0, 0, 0, 0, 0, 0, 0, 3, 0, 0, 0, 0, 0, 0, 0, 0, 0, 9, 0, 0, 0, 0, 0, 0, 0, 0, 0, 0, 0, 0, 0, 0, 0, 0, 0, 3, 0],[0, 0, 0, 0, 0, 0, 7, 0, 0, 0, 0, 0, 0, 0, 0, 0, 0, 0, 7, 0, 0, 0, 0, 0, 0, 0, 7, 0, 0, 7, 0, 0, 0, 0, 0, 0, 0, 0, 0, 0, 0, 0, 0, 0, 0, 0, 7, 0, 0, 0],[][13, 49, 23, 25],[21, 28, 15, 27, 5, 34],[20, 48],[45, 36],[11, 16, 24, 32, 8, 14],[1, 38, 19, 43, 2, 37, 22, 47, 31],[26, 29, 6, 18, 46],[40, 39, 42],[30, 10, 0, 9, 3, 7],[4, 17, 33, 12, 35, 44, 41]
00000000000000000000000000000000000000000000000000,00000000000001000000000101000000000000011010000001,00001100000010010100010000011000011100000100100000,01100000000000000001001000000101000011100001011100,00000010100100101010000010100000100000000000000000,00000000000000000000000000000000000000000000000000,00000000000000000000000000000000000000000000000000,10010001011000000000100000000010000000000000000010,00000000000000000000000000000000000000000000000000,00000000000000000000000000000000000000000000000000,[],[0, 0, 0, 0, 0, 0, 0, 0, 0, 0, 0, 0, 0, 7, 0, 0, 0, 0, 0, 0, 0, 0, 0, 7, 0, 3, 0, 0, 0, 0, 0, 0, 0, 0, 0, 0, 0, 0, 0, 3, 7, 0, 3, 0, 0, 0, 0, 0, 0, 3],[0, 0, 0, 0, 2, 5, 0, 0, 0, 0, 0, 0, 5, 0, 0, 2, 0, 5, 0, 0, 0, 5, 0, 0, 0, 0, 0, 2, 2, 0, 0, 0, 0, 5, 2, 2, 0, 0, 0, 0, 0, 2, 0, 0, 2, 0, 0, 0, 0, 0],[0, 9, 9, 0, 0, 0, 0, 0, 0, 0, 0, 0, 0, 0, 0, 0, 0, 0, 0, 6, 0, 0, 6, 0, 0, 0, 0, 0, 0, 6, 0, 9, 0, 0, 0, 0, 9, 9, 6, 0, 0, 0, 0, 6, 0, 9, 6, 6, 0, 0],[0, 0, 0, 0, 0, 0, 10, 0, 8, 0, 0, 10, 0, 0, 8, 0, 8, 0, 10, 0, 0, 0, 0, 0, 8, 0, 8, 0, 0, 0, 0, 0, 10, 0, 0, 0, 0, 0, 0, 0, 0, 0, 0, 0, 0, 0, 0, 0, 0, 0],[],[],[4, 0, 0, 1, 0, 0, 0, 4, 0, 1, 1, 0, 0, 0, 0, 0, 0, 0, 0, 0, 4, 0, 0, 0, 0, 0, 0, 0, 0, 0, 1, 0, 0, 0, 0, 0, 0, 0, 0, 0, 0, 0, 0, 0, 0, 0, 0, 0, 1, 0],[],[][3, 48, 30, 9, 10],[15, 27, 28, 35, 41, 4, 34, 44],[49, 42, 25, 39],[0, 7, 20],[17, 12, 33, 21, 5],[47, 38, 22, 19, 43, 46, 29],[23, 40, 13],[8, 26, 24, 16, 14],[2, 37, 31, 36, 1, 45],[18, 6, 11, 32]
00000010100100101000000010100000100000000000000000,00000000000001000010000101000000000000011010000001,00001100000010010100010000011000011100000100100000,01100000000000000001001000000101000011100001011100,00000000000000000000000000000000000000000000000000,00000000000000000000000000000000000000000000000000,00000000000000000000000000000000000000000000000000,10010001011000000000100000000010000000000000000010,00000000000000000000000000000000000000000000000000,00000000000000000000000000000000000000000000000000,[0, 0, 0, 0, 0, 0, 6, 0, 4, 0, 0, 6, 0, 0, 4, 0, 6, 0, 0, 0, 0, 0, 0, 0, 4, 0, 6, 0, 0, 0, 0, 0, 6, 0, 0, 0, 0, 0, 0, 0, 0, 0, 0, 0, 0, 0, 0, 0, 0, 0],[0, 0, 0, 0, 0, 0, 0, 0, 0, 0, 0, 0, 0, 3, 0, 0, 0, 0, 3, 0, 0, 0, 0, 9, 0, 9, 0, 0, 0, 0, 0, 0, 0, 0, 0, 0, 0, 0, 0, 3, 3, 0, 9, 0, 0, 0, 0, 0, 0, 9],[0, 0, 0, 0, 7, 1, 0, 0, 0, 0, 0, 0, 7, 0, 0, 1, 0, 7, 0, 0, 0, 1, 0, 0, 0, 0, 0, 1, 7, 0, 0, 0, 0, 7, 7, 1, 0, 0, 0, 0, 0, 7, 0, 0, 1, 0, 0, 0, 0, 0],[0, 10, 10, 0, 0, 0, 0, 0, 0, 0, 0, 0, 0, 0, 0, 0, 0, 0, 0, 5, 0, 0, 5, 0, 0, 0, 0, 0, 0, 5, 0, 5, 0, 0, 0, 0, 10, 10, 5, 0, 0, 0, 0, 5, 0, 10, 10, 5, 0, 0],[],[],[],[8, 0, 0, 8, 0, 0, 0, 2, 0, 2, 8, 0, 0, 0, 0, 0, 0, 0, 0, 0, 8, 0, 0, 0, 0, 0, 0, 0, 0, 0, 8, 0, 0, 0, 0, 0, 0, 0, 0, 0, 0, 0, 0, 0, 0, 0, 0, 0, 2, 0],[],[][15, 27, 21, 44, 35, 5],[9, 7, 48],[18, 39, 13, 40],[14, 24, 8],[31, 47, 38, 22, 19, 43, 29],[6, 11, 16, 26, 32],[28, 4, 34, 41, 33, 12, 17],[20, 3, 0, 30, 10],[23, 49, 25, 42],[2, 45, 46, 1, 37, 36]
00000000000000000000000000000000000000000000000000,00000000000001000000000101000000000000011010000001,00001100000010010100010000011000011100000100100000,01100000000000000001001000000101000011100001011100,00000010100100101010000010100000100000000000000000,00000000000000000000000000000000000000000000000000,00000000000000000000000000000000000000000000000000,10010001011000000000100000000010000000000000000010,00000000000000000000000000000000000000000000000000,00000000000000000000000000000000000000000000000000,[],[0, 0, 0, 0, 0, 0, 0, 0, 0, 0, 0, 0, 0, 4, 0, 0, 0, 0, 0, 0, 0, 0, 0, 7, 0, 7, 0, 0, 0, 0, 0, 0, 0, 0, 0, 0, 0, 0, 0, 7, 7, 0, 7, 0, 0, 0, 0, 0, 0, 4],[0, 0, 0, 0, 6, 9, 0, 0, 0, 0, 0, 0, 9, 0, 0, 6, 0, 6, 0, 0, 0, 9, 0, 0, 0, 0, 0, 9, 9, 0, 0, 0, 0, 6, 9, 6, 0, 0, 0, 0, 0, 6, 0, 0, 9, 0, 0, 0, 0, 0],[0, 2, 5, 0, 0, 0, 0, 0, 0, 0, 0, 0, 0, 0, 0, 0, 0, 0, 0, 5, 0, 0, 2, 0, 0, 0, 0, 0, 0, 2, 0, 2, 0, 0, 0, 0, 5, 5, 2, 0, 0, 0, 0, 2, 0, 5, 2, 2, 0, 0],[0, 0, 0, 0, 0, 0, 10, 0, 3, 0, 0, 3, 0, 0, 3, 0, 3, 0, 3, 0, 0, 0, 0, 0, 10, 0, 10, 0, 0, 0, 0, 0, 3, 0, 0, 0, 0, 0, 0, 0, 0, 0, 0, 0, 0, 0, 0, 0, 0, 0],[],[],[1, 0, 0, 8, 0, 0, 0, 1, 0, 8, 1, 0, 0, 0, 0, 0, 0, 0, 0, 0, 1, 0, 0, 0, 0, 0, 0, 0, 0, 0, 8, 0, 0, 0, 0, 0, 0, 0, 0, 0, 0, 0, 0, 0, 0, 0, 0, 0, 8, 0],[],[][20, 0, 7, 10],[47, 31, 38, 22, 43, 29, 46, 1],[16, 32, 14, 11, 8, 18],[13, 49],[36, 37, 45, 19, 2],[33, 15, 4, 17, 41, 35],[40, 25, 42, 23, 39],[3, 48, 30, 9],[44, 27, 28, 12, 5, 34, 21],[24, 26, 6]
00000000100100101000000010000000100000000000000000,00000000000001000000000101000000000000011010000001,00001100000010010100010000011000011100000100100000,01100000000000000001001000000001000011100001010100,00000000000000000000000000000000000000000000000000,00000000000000000000000000000000000000000000000000,00000000000000000000000000000000000000000000000000,10010001011000000000100000000010000000000000000010,00000010000000000010000000100100000000000000001000,00000000000000000000000000000000000000000000000000,[0, 0, 0, 0, 0, 0, 0, 0, 10, 0, 0, 10, 0, 0, 10, 0, 10, 0, 0, 0, 0, 0, 0, 0, 10, 0, 0, 0, 0, 0, 0, 0, 10, 0, 0, 0, 0, 0, 0, 0, 0, 0, 0, 0, 0, 0, 0, 0, 0, 0],[0, 0, 0, 0, 0, 0, 0, 0, 0, 0, 0, 0, 0, 4, 0, 0, 0, 0, 0, 0, 0, 0, 0, 4, 0, 5, 0, 0, 0, 0, 0, 0, 0, 0, 0, 0, 0, 0, 0, 4, 5, 0, 5, 0, 0, 0, 0, 0, 0, 4],[0, 0, 0, 0, 2, 2, 0, 0, 0, 0, 0, 0, 9, 0, 0, 9, 0, 9, 0, 0, 0, 2, 0, 0, 0, 0, 0, 9, 9, 0, 0, 0, 0, 9, 2, 2, 0, 0, 0, 0, 0, 2, 0, 0, 9, 0, 0, 0, 0, 0],[0, 6, 7, 0, 0, 0, 0, 0, 0, 0, 0, 0, 0, 0, 0, 0, 0, 0, 0, 6, 0, 0, 7, 0, 0, 0, 0, 0, 0, 0, 0, 6, 0, 0, 0, 0, 7, 6, 6, 0, 0, 0, 0, 7, 0, 6, 0, 7, 0, 0],[],[],[],[3, 0, 0, 1, 0, 0, 0, 1, 0, 1, 3, 0, 0, 0, 0, 0, 0, 0, 0, 0, 1, 0, 0, 0, 0, 0, 0, 0, 0, 0, 3, 0, 0, 0, 0, 0, 0, 0, 0, 0, 0, 0, 0, 0, 0, 0, 0, 0, 1, 0],[0, 0, 0, 0, 0, 0, 8, 0, 0, 0, 0, 0, 0, 0, 0, 0, 0, 0, 8, 0, 0, 0, 0, 0, 0, 0, 8, 0, 0, 8, 0, 0, 0, 0, 0, 0, 0, 0, 0, 0, 0, 0, 0, 0, 0, 0, 8, 0, 0, 0],[][9, 3, 20, 48, 7],[35, 21, 41, 5, 34, 4],[0, 10, 30],[49, 23, 39, 13],[42, 25, 40],[31, 37, 1, 45, 19, 38],[2, 36, 43, 22, 47],[46, 26, 18, 29, 6],[28, 15, 17, 33, 12, 44, 27],[14, 8, 24, 16, 11, 32]
00000000000000000000000000000000000000000000000000,00000000000001000000000101000000000000011010000001,00001100000010010100010000011000011100000100100000,01100000000000001001001000000001000011100001010100,00000000000000000000000000000000000000000000000000,00000000000000000000000000000000000000000000000000,00000000000000000000000000000000000000000000000000,10010001011000000000100000000010000000000000000010,00000010100100100010000010100100100000000000001000,00000000000000000000000000000000000000000000000000,[],[0, 0, 0, 0, 0, 0, 0, 0, 0, 0, 0, 0, 0, 1, 0, 0, 0, 0, 0, 0, 0, 0, 0, 4, 0, 1, 0, 0, 0, 0, 0, 0, 0, 0, 0, 0, 0, 0, 0, 4, 1, 0, 4, 0, 0, 0, 0, 0, 0, 1],[0, 0, 0, 0, 5, 10, 0, 0, 0, 0, 0, 0, 5, 0, 0, 5, 0, 10, 0, 0, 0, 5, 0, 0, 0, 0, 0, 5, 10, 0, 0, 0, 0, 10, 5, 10, 0, 0, 0, 0, 0, 10, 0, 0, 5, 0, 0, 0, 0, 0],[0, 9, 9, 0, 0, 0, 0, 0, 0, 0, 0, 0, 0, 0, 0, 0, 6, 0, 0, 9, 0, 0, 6, 0, 0, 0, 0, 0, 0, 0, 0, 6, 0, 0, 0, 0, 6, 9, 9, 0, 0, 0, 0, 9, 0, 6, 0, 9, 0, 0],[],[],[],[7, 0, 0, 7, 0, 0, 0, 2, 0, 7, 7, 0, 0, 0, 0, 0, 0, 0, 0, 0, 2, 0, 0, 0, 0, 0, 0, 0, 0, 0, 7, 0, 0, 0, 0, 0, 0, 0, 0, 0, 0, 0, 0, 0, 0, 0, 0, 0, 2, 0],[0, 0, 0, 0, 0, 0, 8, 0, 8, 0, 0, 3, 0, 0, 3, 0, 0, 0, 3, 0, 0, 0, 0, 0, 8, 0, 8, 0, 0, 8, 0, 0, 3, 0, 0, 0, 0, 0, 0, 0, 0, 0, 0, 0, 0, 0, 3, 0, 0, 0],[][40, 25, 49, 13],[7, 48, 20],[46, 11, 18, 32, 14],[39, 23, 42],[27, 44, 34, 4, 21, 12, 15],[31, 22, 45, 16, 36],[10, 30, 3, 0, 9],[8, 29, 26, 24, 6],[1, 43, 2, 37, 47, 38, 19],[41, 17, 35, 5, 28, 33]
00000000000000000000000000000000000000000000000000,00000000000001000000000101000000000000011010000001,00001100000010010100010000011000011100000100100000,01100000000000000001001000000101000011100001011100,00000010100100101010000010100000100000000000000000,00000000000000000000000000000000000000000000000000,00000000000000000000000000000000000000000000000000,10010001011000000000100000000010000000000000000010,00000000000000000000000000000000000000000000000000,00000000000000000000000000000000000000000000000000,[],[0, 0, 0, 0, 0, 0, 0, 0, 0, 0, 0, 0, 0, 7, 0, 0, 0, 0, 0, 0, 0, 0, 0, 4, 0, 7, 0, 0, 0, 0, 0, 0, 0, 0, 0, 0, 0, 0, 0, 4, 7, 0, 4, 0, 0, 0, 0, 0, 0, 7],[0, 0, 0, 0, 1, 1, 0, 0, 0, 0, 0, 0, 6, 0, 0, 6, 0, 1, 0, 0, 0, 1, 0, 0, 0, 0, 0, 1, 1, 0, 0, 0, 0, 6, 1, 1, 0, 0, 0, 0, 0, 1, 0, 0, 1, 0, 0, 0, 0, 0],[0, 10, 8, 0, 0, 0, 0, 0, 0, 0, 0, 0, 0, 0, 0, 0, 0, 0, 0, 10, 0, 0, 8, 0, 0, 0, 0, 0, 0, 8, 0, 8, 0, 0, 0, 0, 10, 8, 10, 0, 0, 0, 0, 10, 0, 8, 10, 8, 0, 0],[0, 0, 0, 0, 0, 0, 2, 0, 2, 0, 0, 3, 0, 0, 3, 0, 3, 0, 2, 0, 0, 0, 0, 0, 3, 0, 2, 0, 0, 0, 0, 0, 2, 0, 0, 0, 0, 0, 0, 0, 0, 0, 0, 0, 0, 0, 0, 0, 0, 0],[],[],[9, 0, 0, 5, 0, 0, 0, 9, 0, 9, 5, 0, 0, 0, 0, 0, 0, 0, 0, 0, 5, 0, 0, 0, 0, 0, 0, 0, 0, 0, 5, 0, 0, 0, 0, 0, 0, 0, 0, 0, 0, 0, 0, 0, 0, 0, 0, 0, 9, 0],[],[][4, 41, 28, 34, 5, 17, 35, 44, 27, 21],[32, 8, 6, 18, 26],[14, 16, 24, 11],[23, 42, 39],[20, 3, 30, 10],[15, 33, 12],[49, 40, 13, 25],[37, 47, 31, 2, 45, 29, 22],[0, 48, 7, 9],[19, 38, 36, 46, 1, 43]
00000010100100101000000010100000100000000000000000,00000000000001000010000101000000000000011010000001,00001100000010010100010000011000011100000100100000,01100000000000000001001000000101000011100001011100,00000000000000000000000000000000000000000000000000,00000000000000000000000000000000000000000000000000,00000000000000000000000000000000000000000000000000,10010001011000000000100000000010000000000000000010,00000000000000000000000000000000000000000000000000,00000000000000000000000000000000000000000000000000,[0, 0, 0, 0, 0, 0, 2, 0, 2, 0, 0, 2, 0, 0, 2, 0, 9, 0, 0, 0, 0, 0, 0, 0, 2, 0, 9, 0, 0, 0, 0, 0, 9, 0, 0, 0, 0, 0, 0, 0, 0, 0, 0, 0, 0, 0, 0, 0, 0, 0],[0, 0, 0, 0, 0, 0, 0, 0, 0, 0, 0, 0, 0, 3, 0, 0, 0, 0, 4, 0, 0, 0, 0, 3, 0, 4, 0, 0, 0, 0, 0, 0, 0, 0, 0, 0, 0, 0, 0, 4, 4, 0, 4, 0, 0, 0, 0, 0, 0, 3],[0, 0, 0, 0, 1, 1, 0, 0, 0, 0, 0, 0, 1, 0, 0, 10, 0, 10, 0, 0, 0, 10, 0, 0, 0, 0, 0, 1, 10, 0, 0, 0, 0, 1, 1, 10, 0, 0, 0, 0, 0, 1, 0, 0, 10, 0, 0, 0, 0, 0],[0, 6, 5, 0, 0, 0, 0, 0, 0, 0, 0, 0, 0, 0, 0, 0, 0, 0, 0, 6, 0, 0, 5, 0, 0, 0, 0, 0, 0, 6, 0, 5, 0, 0, 0, 0, 5, 6, 6, 0, 0, 0, 0, 6, 0, 5, 6, 6, 0, 0],[],[],[],[8, 0, 0, 8, 0, 0, 0, 8, 0, 7, 7, 0, 0, 0, 0, 0, 0, 0, 0, 0, 8, 0, 0, 0, 0, 0, 0, 0, 0, 0, 7, 0, 0, 0, 0, 0, 0, 0, 0, 0, 0, 0, 0, 0, 0, 0, 0, 0, 7, 0],[],[][5, 4, 34, 12, 33, 41, 27],[24, 14, 8, 11, 6],[49, 13, 23],[42, 39, 25, 40, 18],[22, 31, 2, 45, 36],[29, 46, 1, 37, 43, 47, 38, 19],[10, 48, 9, 30],[7, 0, 20, 3],[32, 16, 26],[35, 44, 21, 28, 15, 17]
00000000000000000000000000000000000000000000000000,00000000000001000000000101000000000000011010000001,00001100000010010101011000011001011101100101101100,00000000000000000000000000000000000000000000000000,01100010100100101010000010100100100010000000010000,00000000000000000000000000000000000000000000000000,00000000000000000000000000000000000000000000000000,10010001011000000000100000000010000000000000000010,00000000000000000000000000000000000000000000000000,00000000000000000000000000000000000000000000000000,[],[0, 0, 0, 0, 0, 0, 0, 0, 0, 0, 0, 0, 0, 2, 0, 0, 0, 0, 0, 0, 0, 0, 0, 7, 0, 7, 0, 0, 0, 0, 0, 0, 0, 0, 0, 0, 0, 0, 0, 2, 2, 0, 7, 0, 0, 0, 0, 0, 0, 7],[0, 0, 0, 0, 6, 6, 0, 0, 0, 0, 0, 0, 6, 0, 0, 6, 0, 4, 0, 6, 0, 4, 10, 0, 0, 0, 0, 4, 10, 0, 0, 10, 0, 6, 10, 4, 0, 10, 10, 0, 0, 4, 0, 4, 6, 0, 6, 10, 0, 0],[],[0, 9, 9, 0, 0, 0, 3, 0, 8, 0, 0, 9, 0, 0, 8, 0, 3, 0, 8, 0, 0, 0, 0, 0, 9, 0, 3, 0, 0, 3, 0, 0, 8, 0, 0, 0, 9, 0, 0, 0, 0, 0, 0, 0, 0, 8, 0, 0, 0, 0],[],[],[5, 0, 0, 1, 0, 0, 0, 1, 0, 1, 5, 0, 0, 0, 0, 0, 0, 0, 0, 0, 1, 0, 0, 0, 0, 0, 0, 0, 0, 0, 5, 0, 0, 0, 0, 0, 0, 0, 0, 0, 0, 0, 0, 0, 0, 0, 0, 0, 5, 0],[],[][7, 9, 20, 3],[39, 40, 13],[16, 26, 29, 6],[41, 21, 17, 27, 35, 43],[0, 48, 30, 10],[19, 15, 12, 33, 4, 5, 46, 44],[25, 49, 42, 23],[8, 18, 32, 14, 45],[24, 36, 1, 11, 2],[34, 22, 47, 31, 37, 38, 28]
00000010100100101000000010100000100000000000000000,00000000000001000010000101000000000000011010000001,00001100000010010100010000011000011100000100100000,01100000000000000001001000000101000011100001011100,00000000000000000000000000000000000000000000000000,00000000000000000000000000000000000000000000000000,00000000000000000000000000000000000000000000000000,10010001011000000000100000000010000000000000000010,00000000000000000000000000000000000000000000000000,00000000000000000000000000000000000000000000000000,[0, 0, 0, 0, 0, 0, 9, 0, 3, 0, 0, 3, 0, 0, 9, 0, 3, 0, 0, 0, 0, 0, 0, 0, 9, 0, 3, 0, 0, 0, 0, 0, 3, 0, 0, 0, 0, 0, 0, 0, 0, 0, 0, 0, 0, 0, 0, 0, 0, 0],[0, 0, 0, 0, 0, 0, 0, 0, 0, 0, 0, 0, 0, 10, 0, 0, 0, 0, 8, 0, 0, 0, 0, 10, 0, 8, 0, 0, 0, 0, 0, 0, 0, 0, 0, 0, 0, 0, 0, 10, 8, 0, 8, 0, 0, 0, 0, 0, 0, 10],[0, 0, 0, 0, 2, 2, 0, 0, 0, 0, 0, 0, 5, 0, 0, 2, 0, 5, 0, 0, 0, 5, 0, 0, 0, 0, 0, 5, 2, 0, 0, 0, 0, 5, 2, 2, 0, 0, 0, 0, 0, 2, 0, 0, 2, 0, 0, 0, 0, 0],[0, 7, 6, 0, 0, 0, 0, 0, 0, 0, 0, 0, 0, 0, 0, 0, 0, 0, 0, 6, 0, 0, 6, 0, 0, 0, 0, 0, 0, 6, 0, 7, 0, 0, 0, 0, 6, 7, 7, 0, 0, 0, 0, 6, 0, 6, 7, 6, 0, 0],[],[],[],[4, 0, 0, 1, 0, 0, 0, 1, 0, 4, 1, 0, 0, 0, 0, 0, 0, 0, 0, 0, 1, 0, 0, 0, 0, 0, 0, 0, 0, 0, 4, 0, 0, 0, 0, 0, 0, 0, 0, 0, 0, 0, 0, 0, 0, 0, 0, 0, 4, 0],[],[][3, 10, 7, 20],[5, 34, 4, 44, 15, 41, 28, 35],[11, 26, 16, 32, 8],[30, 48, 0, 9],[12, 33, 21, 17, 27],[43, 22, 47, 2, 19, 45, 29, 36],[46, 37, 31, 38, 1],[25, 40, 18, 42],[14, 6, 24],[49, 13, 23, 39]
00000000000000000000000000000000000000000000000000,00000000000001000000000101000000000000011010000001,00001100000010010100010000011000011100000100100000,01100000000000000001001000000101000011100001011100,00000010100100101010000010100000100000000000000000,00000000000000000000000000000000000000000000000000,00000000000000000000000000000000000000000000000000,10010001011000000000100000000010000000000000000010,00000000000000000000000000000000000000000000000000,00000000000000000000000000000000000000000000000000,[],[0, 0, 0, 0, 0, 0, 0, 0, 0, 0, 0, 0, 0, 1, 0, 0, 0, 0, 0, 0, 0, 0, 0, 1, 0, 3, 0, 0, 0, 0, 0, 0, 0, 0, 0, 0, 0, 0, 0, 3, 3, 0, 1, 0, 0, 0, 0, 0, 0, 3],[0, 0, 0, 0, 6, 6, 0, 0, 0, 0, 0, 0, 7, 0, 0, 6, 0, 6, 0, 0, 0, 7, 0, 0, 0, 0, 0, 7, 7, 0, 0, 0, 0, 6, 6, 7, 0, 0, 0, 0, 0, 6, 0, 0, 7, 0, 0, 0, 0, 0],[0, 10, 9, 0, 0, 0, 0, 0, 0, 0, 0, 0, 0, 0, 0, 0, 0, 0, 0, 9, 0, 0, 10, 0, 0, 0, 0, 0, 0, 10, 0, 10, 0, 0, 0, 0, 10, 10, 9, 0, 0, 0, 0, 10, 0, 9, 10, 9, 0, 0],[0, 0, 0, 0, 0, 0, 2, 0, 2, 0, 0, 8, 0, 0, 8, 0, 2, 0, 8, 0, 0, 0, 0, 0, 2, 0, 8, 0, 0, 0, 0, 0, 2, 0, 0, 0, 0, 0, 0, 0, 0, 0, 0, 0, 0, 0, 0, 0, 0, 0],[],[],[4, 0, 0, 5, 0, 0, 0, 5, 0, 4, 5, 0, 0, 0, 0, 0, 0, 0, 0, 0, 5, 0, 0, 0, 0, 0, 0, 0, 0, 0, 5, 0, 0, 0, 0, 0, 0, 0, 0, 0, 0, 0, 0, 0, 0, 0, 0, 0, 5, 0],[],[][42, 13, 23],[16, 32, 24, 8, 6],[40, 39, 49, 25],[0, 9],[48, 20, 10, 30, 7, 3],[15, 41, 5, 34, 4, 17, 33],[12, 21, 35, 27, 44, 28],[18, 26, 11, 14],[45, 19, 38, 47, 2],[36, 1, 29, 43, 22, 31, 46, 37]
00000000100100101000000010000000100000000000000000,00000000000000000000000000000000000000000000000000,00001100000010010100010000011000011100000100100000,01100000000000000001001000000001000011100001010100,00000000000000000000000000000000000000000000000000,00000000000000000000000000000000000000000000000000,00000000000001000000000000000000000000011000000000,10010001011000000000100001000010000000000000000011,00000010000000000010000100100100000000000010001000,00000000000000000000000000000000000000000000000000,[0, 0, 0, 0, 0, 0, 0, 0, 3, 0, 0, 4, 0, 0, 4, 0, 3, 0, 0, 0, 0, 0, 0, 0, 3, 0, 0, 0, 0, 0, 0, 0, 3, 0, 0, 0, 0, 0, 0, 0, 0, 0, 0, 0, 0, 0, 0, 0, 0, 0],[],[0, 0, 0, 0, 6, 6, 0, 0, 0, 0, 0, 0, 8, 0, 0, 8, 0, 6, 0, 0, 0, 6, 0, 0, 0, 0, 0, 8, 8, 0, 0, 0, 0, 8, 6, 6, 0, 0, 0, 0, 0, 6, 0, 0, 8, 0, 0, 0, 0, 0],[0, 10, 1, 0, 0, 0, 0, 0, 0, 0, 0, 0, 0, 0, 0, 0, 0, 0, 0, 10, 0, 0, 10, 0, 0, 0, 0, 0, 0, 0, 0, 1, 0, 0, 0, 0, 1, 10, 10, 0, 0, 0, 0, 1, 0, 1, 0, 10, 0, 0],[],[],[0, 0, 0, 0, 0, 0, 0, 0, 0, 0, 0, 0, 0, 7, 0, 0, 0, 0, 0, 0, 0, 0, 0, 0, 0, 0, 0, 0, 0, 0, 0, 0, 0, 0, 0, 0, 0, 0, 0, 7, 7, 0, 0, 0, 0, 0, 0, 0, 0, 0],[5, 0, 0, 9, 0, 0, 0, 9, 0, 5, 9, 0, 0, 0, 0, 0, 0, 0, 0, 0, 9, 0, 0, 0, 0, 5, 0, 0, 0, 0, 5, 0, 0, 0, 0, 0, 0, 0, 0, 0, 0, 0, 0, 0, 0, 0, 0, 0, 9, 5],[0, 0, 0, 0, 0, 0, 2, 0, 0, 0, 0, 0, 0, 0, 0, 0, 0, 0, 2, 0, 0, 0, 0, 2, 0, 0, 2, 0, 0, 2, 0, 0, 0, 0, 0, 0, 0, 0, 0, 0, 0, 0, 2, 0, 0, 0, 2, 0, 0, 0],[][36, 31, 2, 45, 43],[26, 42, 6, 18, 23, 46, 29],[32, 24, 16, 8],[14, 11],[30, 9, 0, 25, 49],[34, 5, 35, 41, 4, 17, 21],[13, 39, 40],[33, 12, 44, 27, 15, 28],[20, 7, 48, 10, 3],[38, 1, 19, 22, 47, 37]
00000010100100101000000010100000100000000000000000,00000000000001000010000101000000000000011010000000,10001100010010010100010000011000011100000100100000,01100000000000000001001000000101000011100001011100,00000000000000000000000000000000000000000000000000,00010001001000000000100000000010000000000000000011,00000000000000000000000000000000000000000000000000,00000000000000000000000000000000000000000000000000,00000000000000000000000000000000000000000000000000,00000000000000000000000000000000000000000000000000,[0, 0, 0, 0, 0, 0, 6, 0, 8, 0, 0, 6, 0, 0, 6, 0, 6, 0, 0, 0, 0, 0, 0, 0, 6, 0, 8, 0, 0, 0, 0, 0, 6, 0, 0, 0, 0, 0, 0, 0, 0, 0, 0, 0, 0, 0, 0, 0, 0, 0],[0, 0, 0, 0, 0, 0, 0, 0, 0, 0, 0, 0, 0, 10, 0, 0, 0, 0, 10, 0, 0, 0, 0, 3, 0, 10, 0, 0, 0, 0, 0, 0, 0, 0, 0, 0, 0, 0, 0, 3, 10, 0, 3, 0, 0, 0, 0, 0, 0, 0],[5, 0, 0, 0, 9, 5, 0, 0, 0, 5, 0, 0, 5, 0, 0, 5, 0, 5, 0, 0, 0, 9, 0, 0, 0, 0, 0, 9, 9, 0, 0, 0, 0, 5, 9, 9, 0, 0, 0, 0, 0, 9, 0, 0, 9, 0, 0, 0, 0, 0],[0, 2, 1, 0, 0, 0, 0, 0, 0, 0, 0, 0, 0, 0, 0, 0, 0, 0, 0, 1, 0, 0, 1, 0, 0, 0, 0, 0, 0, 2, 0, 2, 0, 0, 0, 0, 2, 1, 1, 0, 0, 0, 0, 1, 0, 1, 2, 2, 0, 0],[],[0, 0, 0, 4, 0, 0, 0, 4, 0, 0, 7, 0, 0, 0, 0, 0, 0, 0, 0, 0, 7, 0, 0, 0, 0, 0, 0, 0, 0, 0, 7, 0, 0, 0, 0, 0, 0, 0, 0, 0, 0, 0, 0, 0, 0, 0, 0, 0, 7, 7],[],[],[],[][43, 38, 37, 2, 22, 19, 45],[46, 29, 36, 47, 31, 1],[42, 23, 39],[7, 3],[33, 9, 12, 0, 17, 5, 15],[16, 24, 6, 32, 14, 11],[20, 48, 30, 49, 10],[8, 26],[21, 27, 4, 34, 35, 28, 44, 41],[18, 25, 40, 13]
